p cnf 41 243
1 -29 0 
29 -1 14 15 16 18 22 23 25 26 27 28 0 
1 -28 2 3 4 5 6 7 8 0 
1 -27 2 3 4 5 6 7 8 0 
1 -26 2 3 4 5 6 7 8 0 
1 -25 3 0 
1 -18 2 3 4 5 6 7 8 0 
1 -16 2 3 4 5 6 7 8 0 
1 -15 2 3 4 5 6 7 8 0 
1 -14 2 3 4 5 6 7 8 0 
24 -8 14 15 16 17 18 19 20 21 22 23 27 26 28 0 
8 -21 2 5 6 7 4 0 
24 -7 14 15 16 17 18 19 20 21 22 23 27 26 28 0 
24 -6 14 15 16 17 18 19 20 21 22 23 27 26 28 0 
10 -13 9 0 
10 -12 9 0 
10 -11 9 0 
24 -4 14 15 16 17 18 19 20 21 22 23 27 26 28 0 
28 -3 14 15 16 17 18 19 20 22 23 24 25 26 27 0 
3 -24 5 6 7 4 8 2 0 
3 -20 5 6 7 4 8 2 0 
3 -19 5 6 7 4 8 2 0 
3 -17 5 6 7 4 8 2 0 
24 -2 14 15 16 17 18 19 20 21 22 23 27 26 28 0 
2 -23 3 4 5 6 7 8 0 
2 -22 3 4 5 6 7 8 0 
-2 -3 0 
-2 -4 0 
-2 -5 0 
-2 -6 0 
-2 -7 0 
-3 -4 0 
-2 -8 0 
-2 -9 0 
-3 -5 0 
-2 -10 0 
-2 -11 0 
-3 -6 0 
-2 -12 0 
-2 -13 0 
-3 -7 0 
-4 -5 0 
-3 -8 0 
-4 -6 0 
-3 -9 0 
-3 -10 0 
-4 -7 0 
-3 -11 0 
-5 -6 0 
-4 -8 0 
-3 -12 0 
-2 -25 0 
-3 -13 0 
-4 -9 0 
-5 -7 0 
-2 -28 0 
-4 -10 0 
-2 -29 0 
-5 -8 0 
-4 -11 0 
-6 -7 0 
-17 -3 0 
-5 -9 0 
-4 -12 0 
-6 -8 0 
-4 -13 0 
-5 -10 0 
-21 -3 0 
-5 -11 0 
-6 -9 0 
-2 -1 0 
1 2 3 4 5 6 7 8 9 10 0 
-7 -8 0 
-5 -12 0 
-6 -10 0 
-5 -13 0 
-7 -9 0 
-6 -11 0 
-7 -10 0 
-6 -12 0 
-3 -29 0 
-8 -9 0 
-6 -13 0 
-7 -11 0 
-8 -10 0 
-7 -12 0 
-8 -11 0 
-4 -25 0 
-7 -13 0 
-9 -10 0 
-8 -12 0 
-4 -28 0 
-3 -1 0 
1 3 -28 0 
-4 -29 0 
-8 -13 0 
-5 -25 0 
-9 -14 0 
-5 -28 0 
-11 -12 0 
-5 -29 0 
-15 -9 0 
-10 -14 0 
-6 -25 0 
-9 -16 0 
-11 -13 0 
-4 -1 0 
-15 -10 0 
-9 -17 0 
-11 -14 0 
-12 -13 0 
-6 -28 0 
-10 -16 0 
-18 -9 0 
-6 -29 0 
-11 -15 0 
-12 -14 0 
-7 -25 0 
-9 -19 0 
-10 -17 0 
-11 -16 0 
-9 -20 0 
-18 -10 0 
-12 -15 0 
-13 -14 0 
-9 -21 0 
-11 -17 0 
-7 -28 0 
-10 -19 0 
-5 -1 0 
-12 -16 0 
-7 -29 0 
-8 -25 0 
-9 -22 0 
-13 -15 0 
-11 -18 0 
-10 -20 0 
-23 -9 0 
-12 -17 0 
-10 -21 0 
-11 -19 0 
-13 -16 0 
-9 -24 0 
-12 -18 0 
-8 -28 0 
-10 -22 0 
-11 -20 0 
-9 -25 0 
-13 -17 0 
-14 -16 0 
-8 -29 0 
-23 -10 0 
-12 -19 0 
-9 -26 0 
-11 -21 0 
-13 -18 0 
-6 -1 0 
-10 -24 0 
-9 -27 0 
-12 -20 0 
-11 -22 0 
-15 -16 0 
-9 -28 0 
-10 -25 0 
-13 -19 0 
-11 -23 0 
-12 -21 0 
-9 -29 0 
-10 -26 0 
-13 -20 0 
-11 -24 0 
-12 -22 0 
-10 -27 0 
-11 -25 0 
-13 -21 0 
-12 -23 0 
-10 -28 0 
-7 -1 0 
-11 -26 0 
-10 -29 0 
-13 -22 0 
-12 -24 0 
-16 -18 0 
-11 -27 0 
-12 -25 0 
-13 -23 0 
-11 -28 0 
-12 -26 0 
-13 -24 0 
-12 -27 0 
-8 -1 0 
-13 -25 0 
-12 -28 0 
-13 -26 0 
-13 -27 0 
-13 -28 0 
-9 -1 0 
-19 -20 0 
-10 -1 0 
-17 -25 0 
-11 -1 0 
-28 -17 0 
-25 -19 0 
-17 -29 0 
-12 -1 0 
-25 -20 0 
-13 -1 0 
-25 -24 0 
-25 -26 0 
-25 -27 0 
-25 -28 0 
-17 -1 0 
-1 -19 0 
-1 -20 0 
-21 -1 0 
30 31 32 33 34 35 36 37 38 39 40 41 9 10 0 
-31 -32 0 
-1 -24 0 
-30 -34 0 
-31 -34 0 
-33 -32 0 
-31 -35 0 
-34 -32 0 
-31 -37 0 
-34 -35 0 
-39 -31 0 
-30 -41 0 
-40 -31 0 
-31 -41 0 
-40 -32 0 
-41 -32 0 
-39 -34 0 
-36 -37 0 
-33 -41 0 
-34 -40 0 
-34 -41 0 
-35 -41 0 
-36 -41 0 
-37 -41 0 
-38 -41 0 
-39 -40 0 
-39 -41 0 
-40 -41 0 
c p weight 1 0.587166 0
c p weight -1 0.412834 0
c p weight 2 0.426124 0
c p weight -2 0.573876 0
c p weight 3 0.453408 0
c p weight -3 0.546592 0
c p weight 4 0.543988 0
c p weight -4 0.456012 0
c p weight 5 0.558765 0
c p weight -5 0.441235 0
c p weight 6 0.527208 0
c p weight -6 0.472792 0
c p weight 7 0.499071 0
c p weight -7 0.500929 0
c p weight 8 0.518041 0
c p weight -8 0.481959 0
c p weight 9 0.512224 0
c p weight -9 0.487776 0
c p weight 10 0.409407 0
c p weight -10 0.590593 0
c p weight 11 0.518868 0
c p weight -11 0.481132 0
c p weight 12 0.394133 0
c p weight -12 0.605867 0
c p weight 13 0.525967 0
c p weight -13 0.474033 0
c p weight 14 0.48499 0
c p weight -14 0.515010 0
c p weight 15 0.473248 0
c p weight -15 0.526752 0
c p weight 16 0.524531 0
c p weight -16 0.475469 0
c p weight 17 0.500951 0
c p weight -17 0.499049 0
c p weight 18 0.468504 0
c p weight -18 0.531496 0
c p weight 19 0.525175 0
c p weight -19 0.474825 0
c p weight 20 0.443762 0
c p weight -20 0.556238 0
c p weight 21 0.495447 0
c p weight -21 0.504553 0
c p weight 22 0.381544 0
c p weight -22 0.618456 0
c p weight 23 0.435043 0
c p weight -23 0.564957 0
c p weight 24 0.491001 0
c p weight -24 0.508999 0
c p weight 25 0.420805 0
c p weight -25 0.579195 0
c p weight 26 0.518873 0
c p weight -26 0.481127 0
c p weight 27 0.46461 0
c p weight -27 0.535390 0
c p weight 28 0.485881 0
c p weight -28 0.514119 0
c p weight 29 0.531304 0
c p weight -29 0.468696 0
c p weight 30 0.480149 0
c p weight -30 0.519851 0
c p weight 31 0.479608 0
c p weight -31 0.520392 0
c p weight 32 0.499694 0
c p weight -32 0.500306 0
c p weight 33 0.601228 0
c p weight -33 0.398772 0
c p weight 34 0.50583 0
c p weight -34 0.494170 0
c p weight 35 0.52255 0
c p weight -35 0.477450 0
c p weight 36 0.523353 0
c p weight -36 0.476647 0
c p weight 37 0.47645 0
c p weight -37 0.523550 0
c p weight 38 0.527228 0
c p weight -38 0.472772 0
c p weight 39 0.548957 0
c p weight -39 0.451043 0
c p weight 40 0.472795 0
c p weight -40 0.527205 0
c p weight 41 0.457879 0
c p weight -41 0.542121 0
